NAME: tsp40_19
COMMENT: 40-tsp problem (Padberg/Rinaldi)
TYPE: TSP
DIMENSION: 40
EDGE_WEIGHT_TYPE : EUC_2D
NODE_COORD_SECTION
1 2 4
2 4 13
3 39 24
4 8 10
5 16 1
6 17 26
7 32 20
8 6 2
9 12 31
10 16 30
11 7 4
12 32 15
13 18 24
14 1 35
15 29 27
16 30 2
17 12 24
18 39 25
19 17 4
20 34 19
21 11 32
22 33 3
23 29 34
24 21 22
25 32 11
26 16 37
27 35 27
28 24 31
29 10 10
30 7 7
31 9 31
32 16 18
33 40 22
34 3 31
35 10 31
36 13 25
37 30 23
38 7 40
39 25 20
40 9 9
